FourierSAT_Github_AIJ/benchmarks/MAXSAT_benchmarks/1/dimacs-mod/san400_0.5_1.clq.cnf
c File:  san400_0.5_1.clq
c
c SOURCE: Laura Sanchis (laura@cs.colgate.edu)
c
c REFERENCE: "Test Case Construction for the Vertex Cover Problem", 
c DIMACS Workshop on Computational Support for Discrete Mathematics, 
c March, 1992, with additional work in a to be published technical
c report.
c
c 400 vertices 39900 edges 13 max clique
c 400 39900 387 2725 196200 6
p cnf 40 790
1 2 0
-1 -2 0
1 3 0
-1 -3 0
1 4 0
-1 -4 0
1 6 0
-1 -6 0
1 7 0
-1 -7 0
1 10 0
-1 -10 0
1 13 0
-1 -13 0
1 14 0
-1 -14 0
1 15 0
-1 -15 0
1 16 0
-1 -16 0
1 18 0
-1 -18 0
1 19 0
-1 -19 0
1 23 0
-1 -23 0
1 24 0
-1 -24 0
1 29 0
-1 -29 0
1 32 0
-1 -32 0
1 33 0
-1 -33 0
1 37 0
-1 -37 0
1 38 0
-1 -38 0
1 39 0
-1 -39 0
2 5 0
-2 -5 0
2 8 0
-2 -8 0
2 9 0
-2 -9 0
2 10 0
-2 -10 0
2 11 0
-2 -11 0
2 14 0
-2 -14 0
2 16 0
-2 -16 0
2 23 0
-2 -23 0
2 24 0
-2 -24 0
2 25 0
-2 -25 0
2 26 0
-2 -26 0
2 30 0
-2 -30 0
2 31 0
-2 -31 0
2 35 0
-2 -35 0
2 36 0
-2 -36 0
2 40 0
-2 -40 0
3 4 0
-3 -4 0
3 6 0
-3 -6 0
3 7 0
-3 -7 0
3 11 0
-3 -11 0
3 12 0
-3 -12 0
3 13 0
-3 -13 0
3 14 0
-3 -14 0
3 15 0
-3 -15 0
3 16 0
-3 -16 0
3 17 0
-3 -17 0
3 19 0
-3 -19 0
3 20 0
-3 -20 0
3 21 0
-3 -21 0
3 22 0
-3 -22 0
3 24 0
-3 -24 0
3 27 0
-3 -27 0
3 31 0
-3 -31 0
3 33 0
-3 -33 0
3 34 0
-3 -34 0
3 36 0
-3 -36 0
3 38 0
-3 -38 0
4 6 0
-4 -6 0
4 7 0
-4 -7 0
4 12 0
-4 -12 0
4 13 0
-4 -13 0
4 14 0
-4 -14 0
4 15 0
-4 -15 0
4 16 0
-4 -16 0
4 17 0
-4 -17 0
4 18 0
-4 -18 0
4 19 0
-4 -19 0
4 20 0
-4 -20 0
4 21 0
-4 -21 0
4 22 0
-4 -22 0
4 23 0
-4 -23 0
4 27 0
-4 -27 0
4 28 0
-4 -28 0
4 29 0
-4 -29 0
4 31 0
-4 -31 0
4 32 0
-4 -32 0
4 33 0
-4 -33 0
4 34 0
-4 -34 0
4 37 0
-4 -37 0
4 38 0
-4 -38 0
4 39 0
-4 -39 0
5 6 0
-5 -6 0
5 8 0
-5 -8 0
5 9 0
-5 -9 0
5 10 0
-5 -10 0
5 11 0
-5 -11 0
5 16 0
-5 -16 0
5 17 0
-5 -17 0
5 23 0
-5 -23 0
5 24 0
-5 -24 0
5 25 0
-5 -25 0
5 26 0
-5 -26 0
5 27 0
-5 -27 0
5 28 0
-5 -28 0
5 29 0
-5 -29 0
5 30 0
-5 -30 0
5 35 0
-5 -35 0
5 36 0
-5 -36 0
5 40 0
-5 -40 0
6 7 0
-6 -7 0
6 12 0
-6 -12 0
6 13 0
-6 -13 0
6 14 0
-6 -14 0
6 15 0
-6 -15 0
6 17 0
-6 -17 0
6 18 0
-6 -18 0
6 19 0
-6 -19 0
6 20 0
-6 -20 0
6 21 0
-6 -21 0
6 22 0
-6 -22 0
6 26 0
-6 -26 0
6 27 0
-6 -27 0
6 31 0
-6 -31 0
6 32 0
-6 -32 0
6 33 0
-6 -33 0
6 34 0
-6 -34 0
6 37 0
-6 -37 0
6 38 0
-6 -38 0
6 39 0
-6 -39 0
6 40 0
-6 -40 0
7 12 0
-7 -12 0
7 13 0
-7 -13 0
7 15 0
-7 -15 0
7 16 0
-7 -16 0
7 17 0
-7 -17 0
7 18 0
-7 -18 0
7 19 0
-7 -19 0
7 20 0
-7 -20 0
7 21 0
-7 -21 0
7 22 0
-7 -22 0
7 25 0
-7 -25 0
7 27 0
-7 -27 0
7 31 0
-7 -31 0
7 32 0
-7 -32 0
7 33 0
-7 -33 0
7 34 0
-7 -34 0
7 37 0
-7 -37 0
7 39 0
-7 -39 0
7 40 0
-7 -40 0
8 9 0
-8 -9 0
8 10 0
-8 -10 0
8 11 0
-8 -11 0
8 18 0
-8 -18 0
8 21 0
-8 -21 0
8 22 0
-8 -22 0
8 23 0
-8 -23 0
8 24 0
-8 -24 0
8 25 0
-8 -25 0
8 26 0
-8 -26 0
8 28 0
-8 -28 0
8 29 0
-8 -29 0
8 30 0
-8 -30 0
8 31 0
-8 -31 0
8 33 0
-8 -33 0
8 36 0
-8 -36 0
8 38 0
-8 -38 0
9 10 0
-9 -10 0
9 11 0
-9 -11 0
9 12 0
-9 -12 0
9 23 0
-9 -23 0
9 24 0
-9 -24 0
9 26 0
-9 -26 0
9 28 0
-9 -28 0
9 29 0
-9 -29 0
9 30 0
-9 -30 0
9 31 0
-9 -31 0
9 35 0
-9 -35 0
9 37 0
-9 -37 0
9 40 0
-9 -40 0
10 20 0
-10 -20 0
10 23 0
-10 -23 0
10 25 0
-10 -25 0
10 26 0
-10 -26 0
10 28 0
-10 -28 0
10 29 0
-10 -29 0
10 30 0
-10 -30 0
10 35 0
-10 -35 0
10 36 0
-10 -36 0
10 40 0
-10 -40 0
11 15 0
-11 -15 0
11 16 0
-11 -16 0
11 23 0
-11 -23 0
11 25 0
-11 -25 0
11 26 0
-11 -26 0
11 28 0
-11 -28 0
11 29 0
-11 -29 0
11 30 0
-11 -30 0
11 35 0
-11 -35 0
11 36 0
-11 -36 0
11 37 0
-11 -37 0
11 40 0
-11 -40 0
12 13 0
-12 -13 0
12 14 0
-12 -14 0
12 15 0
-12 -15 0
12 16 0
-12 -16 0
12 18 0
-12 -18 0
12 19 0
-12 -19 0
12 32 0
-12 -32 0
12 33 0
-12 -33 0
12 37 0
-12 -37 0
12 38 0
-12 -38 0
12 39 0
-12 -39 0
12 40 0
-12 -40 0
13 14 0
-13 -14 0
13 16 0
-13 -16 0
13 17 0
-13 -17 0
13 18 0
-13 -18 0
13 19 0
-13 -19 0
13 20 0
-13 -20 0
13 21 0
-13 -21 0
13 22 0
-13 -22 0
13 27 0
-13 -27 0
13 30 0
-13 -30 0
13 31 0
-13 -31 0
13 32 0
-13 -32 0
13 33 0
-13 -33 0
13 34 0
-13 -34 0
13 37 0
-13 -37 0
13 38 0
-13 -38 0
13 39 0
-13 -39 0
13 40 0
-13 -40 0
14 15 0
-14 -15 0
14 16 0
-14 -16 0
14 17 0
-14 -17 0
14 18 0
-14 -18 0
14 19 0
-14 -19 0
14 20 0
-14 -20 0
14 21 0
-14 -21 0
14 22 0
-14 -22 0
14 25 0
-14 -25 0
14 27 0
-14 -27 0
14 31 0
-14 -31 0
14 32 0
-14 -32 0
14 33 0
-14 -33 0
14 34 0
-14 -34 0
14 37 0
-14 -37 0
14 39 0
-14 -39 0
15 16 0
-15 -16 0
15 17 0
-15 -17 0
15 18 0
-15 -18 0
15 19 0
-15 -19 0
15 20 0
-15 -20 0
15 21 0
-15 -21 0
15 22 0
-15 -22 0
15 24 0
-15 -24 0
15 27 0
-15 -27 0
15 31 0
-15 -31 0
15 32 0
-15 -32 0
15 33 0
-15 -33 0
15 34 0
-15 -34 0
15 36 0
-15 -36 0
15 37 0
-15 -37 0
15 38 0
-15 -38 0
15 39 0
-15 -39 0
16 17 0
-16 -17 0
16 18 0
-16 -18 0
16 19 0
-16 -19 0
16 20 0
-16 -20 0
16 21 0
-16 -21 0
16 22 0
-16 -22 0
16 27 0
-16 -27 0
16 31 0
-16 -31 0
16 32 0
-16 -32 0
16 33 0
-16 -33 0
16 34 0
-16 -34 0
16 37 0
-16 -37 0
16 38 0
-16 -38 0
16 39 0
-16 -39 0
17 18 0
-17 -18 0
17 19 0
-17 -19 0
17 32 0
-17 -32 0
17 33 0
-17 -33 0
17 37 0
-17 -37 0
17 38 0
-17 -38 0
17 39 0
-17 -39 0
18 19 0
-18 -19 0
18 20 0
-18 -20 0
18 21 0
-18 -21 0
18 22 0
-18 -22 0
18 24 0
-18 -24 0
18 27 0
-18 -27 0
18 28 0
-18 -28 0
18 31 0
-18 -31 0
18 33 0
-18 -33 0
18 34 0
-18 -34 0
18 38 0
-18 -38 0
19 20 0
-19 -20 0
19 21 0
-19 -21 0
19 22 0
-19 -22 0
19 27 0
-19 -27 0
19 29 0
-19 -29 0
19 31 0
-19 -31 0
19 32 0
-19 -32 0
19 34 0
-19 -34 0
19 37 0
-19 -37 0
19 38 0
-19 -38 0
19 39 0
-19 -39 0
19 40 0
-19 -40 0
20 24 0
-20 -24 0
20 30 0
-20 -30 0
20 32 0
-20 -32 0
20 33 0
-20 -33 0
20 37 0
-20 -37 0
20 38 0
-20 -38 0
20 39 0
-20 -39 0
21 25 0
-21 -25 0
21 26 0
-21 -26 0
21 32 0
-21 -32 0
21 33 0
-21 -33 0
21 37 0
-21 -37 0
21 38 0
-21 -38 0
21 39 0
-21 -39 0
22 23 0
-22 -23 0
22 32 0
-22 -32 0
22 33 0
-22 -33 0
22 37 0
-22 -37 0
22 38 0
-22 -38 0
22 39 0
-22 -39 0
22 40 0
-22 -40 0
23 24 0
-23 -24 0
23 25 0
-23 -25 0
23 28 0
-23 -28 0
23 29 0
-23 -29 0
23 33 0
-23 -33 0
23 35 0
-23 -35 0
23 36 0
-23 -36 0
23 39 0
-23 -39 0
23 40 0
-23 -40 0
24 25 0
-24 -25 0
24 26 0
-24 -26 0
24 28 0
-24 -28 0
24 29 0
-24 -29 0
24 30 0
-24 -30 0
24 32 0
-24 -32 0
24 34 0
-24 -34 0
24 35 0
-24 -35 0
24 36 0
-24 -36 0
24 40 0
-24 -40 0
25 26 0
-25 -26 0
25 28 0
-25 -28 0
25 29 0
-25 -29 0
25 30 0
-25 -30 0
25 33 0
-25 -33 0
25 35 0
-25 -35 0
25 38 0
-25 -38 0
25 39 0
-25 -39 0
25 40 0
-25 -40 0
26 28 0
-26 -28 0
26 29 0
-26 -29 0
26 35 0
-26 -35 0
26 36 0
-26 -36 0
26 40 0
-26 -40 0
27 32 0
-27 -32 0
27 33 0
-27 -33 0
27 35 0
-27 -35 0
27 37 0
-27 -37 0
27 38 0
-27 -38 0
27 39 0
-27 -39 0
28 30 0
-28 -30 0
28 31 0
-28 -31 0
28 35 0
-28 -35 0
28 36 0
-28 -36 0
28 40 0
-28 -40 0
29 30 0
-29 -30 0
29 33 0
-29 -33 0
29 35 0
-29 -35 0
29 36 0
-29 -36 0
29 40 0
-29 -40 0
30 31 0
-30 -31 0
30 35 0
-30 -35 0
30 36 0
-30 -36 0
30 40 0
-30 -40 0
31 32 0
-31 -32 0
31 33 0
-31 -33 0
31 36 0
-31 -36 0
31 37 0
-31 -37 0
31 38 0
-31 -38 0
31 39 0
-31 -39 0
32 33 0
-32 -33 0
32 34 0
-32 -34 0
32 38 0
-32 -38 0
33 34 0
-33 -34 0
33 37 0
-33 -37 0
33 38 0
-33 -38 0
33 39 0
-33 -39 0
34 35 0
-34 -35 0
34 37 0
-34 -37 0
34 38 0
-34 -38 0
34 39 0
-34 -39 0
35 36 0
-35 -36 0
35 38 0
-35 -38 0
36 37 0
-36 -37 0
36 40 0
-36 -40 0
37 38 0
-37 -38 0
38 39 0
-38 -39 0
