FourierSAT_Github_AIJ/res/fs_1core/san400_0.5_1.clq.cnf.txt
o 154
o 150
